SIMON/SIMON32/SIMON1/SIMON11.sol
# Objective value = 30
S0_r1 0
S1_r1 0
S2_r1 0
S3_r1 0
S4_r1 1
S5_r1 0
S6_r1 0
S7_r1 0
S8_r1 0
S9_r1 0
S10_r1 0
S11_r1 1
S12_r1 0
S13_r1 0
S14_r1 0
S15_r1 0
S0_r2 0
S1_r2 1
S2_r2 0
S3_r2 0
S4_r2 0
S5_r2 0
S6_r2 1
S7_r2 0
S8_r2 0
S9_r2 0
S10_r2 1
S11_r2 0
S12_r2 0
S13_r2 1
S14_r2 0
S15_r2 0
S0_r3 0
S1_r3 0
S2_r3 0
S3_r3 0
S4_r3 0
S5_r3 0
S6_r3 0
S7_r3 0
S8_r3 1
S9_r3 0
S10_r3 0
S11_r3 0
S12_r3 0
S13_r3 0
S14_r3 0
S15_r3 1
S0_r4 0
S1_r4 1
S2_r4 0
S3_r4 0
S4_r4 0
S5_r4 0
S6_r4 0
S7_r4 0
S8_r4 0
S9_r4 0
S10_r4 1
S11_r4 0
S12_r4 0
S13_r4 0
S14_r4 0
S15_r4 0
S0_r5 0
S1_r5 0
S2_r5 0
S3_r5 0
S4_r5 0
S5_r5 0
S6_r5 0
S7_r5 0
S8_r5 0
S9_r5 0
S10_r5 0
S11_r5 0
S12_r5 0
S13_r5 0
S14_r5 0
S15_r5 0
S0_r6 0
S1_r6 1
S2_r6 0
S3_r6 0
S4_r6 0
S5_r6 0
S6_r6 0
S7_r6 0
S8_r6 0
S9_r6 0
S10_r6 1
S11_r6 0
S12_r6 0
S13_r6 0
S14_r6 0
S15_r6 0
S0_r7 0
S1_r7 0
S2_r7 0
S3_r7 0
S4_r7 0
S5_r7 0
S6_r7 0
S7_r7 0
S8_r7 1
S9_r7 0
S10_r7 0
S11_r7 0
S12_r7 0
S13_r7 0
S14_r7 0
S15_r7 1
S0_r8 0
S1_r8 1
S2_r8 0
S3_r8 0
S4_r8 0
S5_r8 0
S6_r8 1
S7_r8 0
S8_r8 0
S9_r8 0
S10_r8 1
S11_r8 0
S12_r8 0
S13_r8 1
S14_r8 0
S15_r8 0
S0_r9 0
S1_r9 0
S2_r9 0
S3_r9 0
S4_r9 1
S5_r9 0
S6_r9 0
S7_r9 0
S8_r9 0
S9_r9 0
S10_r9 0
S11_r9 1
S12_r9 0
S13_r9 0
S14_r9 0
S15_r9 0
S0_r10 0
S1_r10 1
S2_r10 1
S3_r10 0
S4_r10 0
S5_r10 0
S6_r10 1
S7_r10 0
S8_r10 0
S9_r10 1
S10_r10 1
S11_r10 0
S12_r10 0
S13_r10 1
S14_r10 0
S15_r10 0
S0_r11 1
S1_r11 0
S2_r11 0
S3_r11 0
S4_r11 0
S5_r11 0
S6_r11 0
S7_r11 1
S8_r11 1
S9_r11 0
S10_r11 0
S11_r11 0
S12_r11 0
S13_r11 0
S14_r11 0
S15_r11 1
L1_r1 0
L8_r1 0
v_AfterAnd_1_0 0
L2_r1 0
L9_r1 0
v_AfterAnd_1_1 0
L3_r1 0
L10_r1 0
v_AfterAnd_1_2 0
L4_r1 0
L11_r1 0
v_AfterAnd_1_3 0
L5_r1 0
L12_r1 1
v_AfterAnd_1_4 0
L6_r1 0
L13_r1 0
v_AfterAnd_1_5 0
L7_r1 0
L14_r1 0
v_AfterAnd_1_6 0
L15_r1 0
v_AfterAnd_1_7 0
L0_r1 0
v_AfterAnd_1_8 0
v_AfterAnd_1_9 0
v_AfterAnd_1_10 0
v_AfterAnd_1_11 0
v_AfterAnd_1_12 0
v_AfterAnd_1_13 0
v_AfterAnd_1_14 0
v_AfterAnd_1_15 0
R0_r1 0
L0_r2 0
R1_r1 0
L1_r2 0
R2_r1 1
L2_r2 1
R3_r1 0
L3_r2 0
R4_r1 0
L4_r2 0
R5_r1 0
L5_r2 0
R6_r1 0
L6_r2 0
R7_r1 0
L7_r2 0
R8_r1 0
L8_r2 0
R9_r1 0
L9_r2 0
R10_r1 1
L10_r2 0
R11_r1 0
L11_r2 0
R12_r1 0
L12_r2 0
R13_r1 0
L13_r2 0
R14_r1 1
L14_r2 1
R15_r1 0
L15_r2 0
R0_r2 0
R1_r2 0
R2_r2 0
R3_r2 0
R4_r2 0
R5_r2 0
R6_r2 0
R7_r2 0
R8_r2 0
R9_r2 0
R10_r2 0
R11_r2 0
R12_r2 1
R13_r2 0
R14_r2 0
R15_r2 0
v_AfterAnd_2_0 0
v_AfterAnd_2_1 0
v_AfterAnd_2_2 0
v_AfterAnd_2_3 0
v_AfterAnd_2_4 0
v_AfterAnd_2_5 0
v_AfterAnd_2_6 0
v_AfterAnd_2_7 0
v_AfterAnd_2_8 0
v_AfterAnd_2_9 0
v_AfterAnd_2_10 0
v_AfterAnd_2_11 0
v_AfterAnd_2_12 0
v_AfterAnd_2_13 0
v_AfterAnd_2_14 0
v_AfterAnd_2_15 0
L0_r3 1
L1_r3 0
L2_r3 0
L3_r3 0
L4_r3 0
L5_r3 0
L6_r3 0
L7_r3 0
L8_r3 0
L9_r3 0
L10_r3 0
L11_r3 0
L12_r3 0
L13_r3 0
L14_r3 0
L15_r3 0
R0_r3 0
R1_r3 0
R2_r3 1
R3_r3 0
R4_r3 0
R5_r3 0
R6_r3 0
R7_r3 0
R8_r3 0
R9_r3 0
R10_r3 0
R11_r3 0
R12_r3 0
R13_r3 0
R14_r3 1
R15_r3 0
v_AfterAnd_3_0 0
v_AfterAnd_3_1 0
v_AfterAnd_3_2 0
v_AfterAnd_3_3 0
v_AfterAnd_3_4 0
v_AfterAnd_3_5 0
v_AfterAnd_3_6 0
v_AfterAnd_3_7 0
v_AfterAnd_3_8 0
v_AfterAnd_3_9 0
v_AfterAnd_3_10 0
v_AfterAnd_3_11 0
v_AfterAnd_3_12 0
v_AfterAnd_3_13 0
v_AfterAnd_3_14 0
v_AfterAnd_3_15 0
L0_r4 0
L1_r4 0
L2_r4 1
L3_r4 0
L4_r4 0
L5_r4 0
L6_r4 0
L7_r4 0
L8_r4 0
L9_r4 0
L10_r4 0
L11_r4 0
L12_r4 0
L13_r4 0
L14_r4 0
L15_r4 0
R0_r4 1
R1_r4 0
R2_r4 0
R3_r4 0
R4_r4 0
R5_r4 0
R6_r4 0
R7_r4 0
R8_r4 0
R9_r4 0
R10_r4 0
R11_r4 0
R12_r4 0
R13_r4 0
R14_r4 0
R15_r4 0
v_AfterAnd_4_0 0
v_AfterAnd_4_1 0
v_AfterAnd_4_2 0
v_AfterAnd_4_3 0
v_AfterAnd_4_4 0
v_AfterAnd_4_5 0
v_AfterAnd_4_6 0
v_AfterAnd_4_7 0
v_AfterAnd_4_8 0
v_AfterAnd_4_9 0
v_AfterAnd_4_10 0
v_AfterAnd_4_11 0
v_AfterAnd_4_12 0
v_AfterAnd_4_13 0
v_AfterAnd_4_14 0
v_AfterAnd_4_15 0
L0_r5 0
L1_r5 0
L2_r5 0
L3_r5 0
L4_r5 0
L5_r5 0
L6_r5 0
L7_r5 0
L8_r5 0
L9_r5 0
L10_r5 0
L11_r5 0
L12_r5 0
L13_r5 0
L14_r5 0
L15_r5 0
R0_r5 0
R1_r5 0
R2_r5 1
R3_r5 0
R4_r5 0
R5_r5 0
R6_r5 0
R7_r5 0
R8_r5 0
R9_r5 0
R10_r5 0
R11_r5 0
R12_r5 0
R13_r5 0
R14_r5 0
R15_r5 0
v_AfterAnd_5_0 0
v_AfterAnd_5_1 0
v_AfterAnd_5_2 0
v_AfterAnd_5_3 0
v_AfterAnd_5_4 0
v_AfterAnd_5_5 0
v_AfterAnd_5_6 0
v_AfterAnd_5_7 0
v_AfterAnd_5_8 0
v_AfterAnd_5_9 0
v_AfterAnd_5_10 0
v_AfterAnd_5_11 0
v_AfterAnd_5_12 0
v_AfterAnd_5_13 0
v_AfterAnd_5_14 0
v_AfterAnd_5_15 0
L0_r6 0
L1_r6 0
L2_r6 1
L3_r6 0
L4_r6 0
L5_r6 0
L6_r6 0
L7_r6 0
L8_r6 0
L9_r6 0
L10_r6 0
L11_r6 0
L12_r6 0
L13_r6 0
L14_r6 0
L15_r6 0
R0_r6 0
R1_r6 0
R2_r6 0
R3_r6 0
R4_r6 0
R5_r6 0
R6_r6 0
R7_r6 0
R8_r6 0
R9_r6 0
R10_r6 0
R11_r6 0
R12_r6 0
R13_r6 0
R14_r6 0
R15_r6 0
v_AfterAnd_6_0 0
v_AfterAnd_6_1 0
v_AfterAnd_6_2 0
v_AfterAnd_6_3 0
v_AfterAnd_6_4 0
v_AfterAnd_6_5 0
v_AfterAnd_6_6 0
v_AfterAnd_6_7 0
v_AfterAnd_6_8 0
v_AfterAnd_6_9 0
v_AfterAnd_6_10 0
v_AfterAnd_6_11 0
v_AfterAnd_6_12 0
v_AfterAnd_6_13 0
v_AfterAnd_6_14 0
v_AfterAnd_6_15 0
L0_r7 1
L1_r7 0
L2_r7 0
L3_r7 0
L4_r7 0
L5_r7 0
L6_r7 0
L7_r7 0
L8_r7 0
L9_r7 0
L10_r7 0
L11_r7 0
L12_r7 0
L13_r7 0
L14_r7 0
L15_r7 0
R0_r7 0
R1_r7 0
R2_r7 1
R3_r7 0
R4_r7 0
R5_r7 0
R6_r7 0
R7_r7 0
R8_r7 0
R9_r7 0
R10_r7 0
R11_r7 0
R12_r7 0
R13_r7 0
R14_r7 0
R15_r7 0
v_AfterAnd_7_0 0
v_AfterAnd_7_1 0
v_AfterAnd_7_2 0
v_AfterAnd_7_3 0
v_AfterAnd_7_4 0
v_AfterAnd_7_5 0
v_AfterAnd_7_6 0
v_AfterAnd_7_7 0
v_AfterAnd_7_8 0
v_AfterAnd_7_9 0
v_AfterAnd_7_10 0
v_AfterAnd_7_11 0
v_AfterAnd_7_12 0
v_AfterAnd_7_13 0
v_AfterAnd_7_14 0
v_AfterAnd_7_15 0
L0_r8 0
L1_r8 0
L2_r8 1
L3_r8 0
L4_r8 0
L5_r8 0
L6_r8 0
L7_r8 0
L8_r8 0
L9_r8 0
L10_r8 0
L11_r8 0
L12_r8 0
L13_r8 0
L14_r8 1
L15_r8 0
R0_r8 1
R1_r8 0
R2_r8 0
R3_r8 0
R4_r8 0
R5_r8 0
R6_r8 0
R7_r8 0
R8_r8 0
R9_r8 0
R10_r8 0
R11_r8 0
R12_r8 0
R13_r8 0
R14_r8 0
R15_r8 0
v_AfterAnd_8_0 0
v_AfterAnd_8_1 0
v_AfterAnd_8_2 0
v_AfterAnd_8_3 0
v_AfterAnd_8_4 0
v_AfterAnd_8_5 0
v_AfterAnd_8_6 0
v_AfterAnd_8_7 0
v_AfterAnd_8_8 0
v_AfterAnd_8_9 0
v_AfterAnd_8_10 0
v_AfterAnd_8_11 0
v_AfterAnd_8_12 0
v_AfterAnd_8_13 0
v_AfterAnd_8_14 0
v_AfterAnd_8_15 0
L0_r9 0
L1_r9 0
L2_r9 0
L3_r9 0
L4_r9 0
L5_r9 0
L6_r9 0
L7_r9 0
L8_r9 0
L9_r9 0
L10_r9 0
L11_r9 0
L12_r9 1
L13_r9 0
L14_r9 0
L15_r9 0
R0_r9 0
R1_r9 0
R2_r9 1
R3_r9 0
R4_r9 0
R5_r9 0
R6_r9 0
R7_r9 0
R8_r9 0
R9_r9 0
R10_r9 0
R11_r9 0
R12_r9 0
R13_r9 0
R14_r9 1
R15_r9 0
v_AfterAnd_9_0 0
v_AfterAnd_9_1 0
v_AfterAnd_9_2 0
v_AfterAnd_9_3 0
v_AfterAnd_9_4 0
v_AfterAnd_9_5 0
v_AfterAnd_9_6 0
v_AfterAnd_9_7 0
v_AfterAnd_9_8 0
v_AfterAnd_9_9 0
v_AfterAnd_9_10 0
v_AfterAnd_9_11 0
v_AfterAnd_9_12 0
v_AfterAnd_9_13 0
v_AfterAnd_9_14 0
v_AfterAnd_9_15 0
L0_r10 0
L1_r10 0
L2_r10 1
L3_r10 0
L4_r10 0
L5_r10 0
L6_r10 0
L7_r10 0
L8_r10 0
L9_r10 0
L10_r10 1
L11_r10 0
L12_r10 0
L13_r10 0
L14_r10 1
L15_r10 0
R0_r10 0
R1_r10 0
R2_r10 0
R3_r10 0
R4_r10 0
R5_r10 0
R6_r10 0
R7_r10 0
R8_r10 0
R9_r10 0
R10_r10 0
R11_r10 0
R12_r10 1
R13_r10 0
R14_r10 0
R15_r10 0
v_AfterAnd_10_0 0
v_AfterAnd_10_1 0
v_AfterAnd_10_2 0
v_AfterAnd_10_3 0
v_AfterAnd_10_4 0
v_AfterAnd_10_5 0
v_AfterAnd_10_6 0
v_AfterAnd_10_7 0
v_AfterAnd_10_8 0
v_AfterAnd_10_9 0
v_AfterAnd_10_10 0
v_AfterAnd_10_11 0
v_AfterAnd_10_12 0
v_AfterAnd_10_13 0
v_AfterAnd_10_14 0
v_AfterAnd_10_15 0
L0_r11 1
L1_r11 0
L2_r11 0
L3_r11 0
L4_r11 0
L5_r11 0
L6_r11 0
L7_r11 0
L8_r11 1
L9_r11 0
L10_r11 0
L11_r11 0
L12_r11 0
L13_r11 0
L14_r11 0
L15_r11 0
R0_r11 0
R1_r11 0
R2_r11 1
R3_r11 0
R4_r11 0
R5_r11 0
R6_r11 0
R7_r11 0
R8_r11 0
R9_r11 0
R10_r11 1
R11_r11 0
R12_r11 0
R13_r11 0
R14_r11 1
R15_r11 0
v_AfterAnd_11_0 0
v_AfterAnd_11_1 0
v_AfterAnd_11_2 0
v_AfterAnd_11_3 0
v_AfterAnd_11_4 0
v_AfterAnd_11_5 0
v_AfterAnd_11_6 0
v_AfterAnd_11_7 0
v_AfterAnd_11_8 0
v_AfterAnd_11_9 0
v_AfterAnd_11_10 0
v_AfterAnd_11_11 0
v_AfterAnd_11_12 0
v_AfterAnd_11_13 0
v_AfterAnd_11_14 0
v_AfterAnd_11_15 0
L0_r12 0
L1_r12 0
L2_r12 1
L3_r12 0
L4_r12 0
L5_r12 0
L6_r12 1
L7_r12 0
L8_r12 0
L9_r12 0
L10_r12 1
L11_r12 0
L12_r12 0
L13_r12 0
L14_r12 0
L15_r12 0
R0_r12 1
R1_r12 0
R2_r12 0
R3_r12 0
R4_r12 0
R5_r12 0
R6_r12 0
R7_r12 0
R8_r12 1
R9_r12 0
R10_r12 0
R11_r12 0
R12_r12 0
R13_r12 0
R14_r12 0
R15_r12 0
